
Gurobi 6.0.5 (mac64) logging started Sun Jan 10 01:14:39 2016


Gurobi 6.0.5 (mac64) logging started Sun Jan 10 01:14:52 2016


Gurobi 6.0.5 (mac64) logging started Sun Jan 10 01:16:15 2016


Gurobi 6.0.5 (mac64) logging started Sun Jan 10 01:17:00 2016


Gurobi 6.0.5 (mac64) logging started Sun Jan 10 01:17:48 2016


Gurobi 6.0.5 (mac64) logging started Sun Jan 10 01:17:59 2016


Gurobi 6.0.5 (mac64) logging started Sun Jan 10 01:18:09 2016


Gurobi 6.0.5 (mac64) logging started Sun Jan 10 01:19:43 2016


Gurobi 6.0.5 (mac64) logging started Sun Jan 10 01:21:21 2016


Gurobi 6.0.5 (mac64) logging started Sun Jan 10 01:21:33 2016


Gurobi 6.0.5 (mac64) logging started Sun Jan 10 01:21:45 2016


Gurobi 6.0.5 (mac64) logging started Sun Jan 10 01:21:55 2016


Gurobi 6.0.5 (mac64) logging started Sun Jan 10 01:22:00 2016


Gurobi 6.0.5 (mac64) logging started Sun Jan 10 01:22:09 2016


Gurobi 6.0.5 (mac64) logging started Sun Jan 10 01:22:39 2016


Gurobi 6.0.5 (mac64) logging started Sun Jan 10 01:22:51 2016


Gurobi 6.0.5 (mac64) logging started Sun Jan 10 01:23:19 2016


Gurobi 6.0.5 (mac64) logging started Sun Jan 10 01:23:33 2016


Gurobi 6.0.5 (mac64) logging started Sun Jan 10 01:23:43 2016


Gurobi 6.0.5 (mac64) logging started Sun Jan 10 01:24:06 2016


Gurobi 6.0.5 (mac64) logging started Sun Jan 10 01:24:16 2016


Gurobi 6.0.5 (mac64) logging started Sun Jan 10 01:24:22 2016


Gurobi 6.0.5 (mac64) logging started Sun Jan 10 01:26:04 2016


Gurobi 6.0.5 (mac64) logging started Sun Jan 10 01:26:17 2016


Gurobi 6.0.5 (mac64) logging started Sun Jan 10 01:26:46 2016


Gurobi 6.0.5 (mac64) logging started Sun Jan 10 01:34:47 2016


Gurobi 6.0.5 (mac64) logging started Sun Jan 10 01:35:26 2016


Gurobi 6.0.5 (mac64) logging started Sun Jan 10 01:35:35 2016


Gurobi 6.0.5 (mac64) logging started Sun Jan 10 01:35:56 2016


Gurobi 6.0.5 (mac64) logging started Sun Jan 10 01:36:06 2016


Gurobi 6.0.5 (mac64) logging started Sun Jan 10 01:36:18 2016


Gurobi 6.0.5 (mac64) logging started Sun Jan 10 01:36:32 2016


Gurobi 6.0.5 (mac64) logging started Sun Jan 10 01:36:54 2016


Gurobi 6.0.5 (mac64) logging started Sun Jan 10 01:37:31 2016


Gurobi 6.0.5 (mac64) logging started Sun Jan 10 01:37:41 2016


Gurobi 6.0.5 (mac64) logging started Sun Jan 10 01:37:53 2016


Gurobi 6.0.5 (mac64) logging started Sun Jan 10 01:38:06 2016


Gurobi 6.0.5 (mac64) logging started Sun Jan 10 01:38:18 2016


Gurobi 6.0.5 (mac64) logging started Sun Jan 10 01:39:04 2016


Gurobi 6.0.5 (mac64) logging started Sun Jan 10 01:39:14 2016


Gurobi 6.0.5 (mac64) logging started Sun Jan 10 01:39:25 2016


Gurobi 6.0.5 (mac64) logging started Sun Jan 10 01:41:07 2016


Gurobi 6.0.5 (mac64) logging started Sun Jan 10 01:41:19 2016


Gurobi 6.0.5 (mac64) logging started Sun Jan 10 02:12:08 2016


Gurobi 6.0.5 (mac64) logging started Sun Jan 10 02:12:45 2016


Gurobi 6.0.5 (mac64) logging started Sun Jan 10 02:12:53 2016


Gurobi 6.0.5 (mac64) logging started Sun Jan 10 02:14:20 2016


Gurobi 6.0.5 (mac64) logging started Sun Jan 10 09:24:19 2016


Gurobi 6.0.5 (mac64) logging started Sun Jan 10 09:24:40 2016


Gurobi 6.0.5 (mac64) logging started Sun Jan 10 09:25:04 2016


Gurobi 6.0.5 (mac64) logging started Sun Jan 10 09:25:29 2016


Gurobi 6.0.5 (mac64) logging started Sun Jan 10 09:26:18 2016


Gurobi 6.0.5 (mac64) logging started Sun Jan 10 09:26:57 2016


Gurobi 6.0.5 (mac64) logging started Sun Jan 10 09:27:18 2016


Gurobi 6.0.5 (mac64) logging started Sun Jan 10 09:27:30 2016


Gurobi 6.0.5 (mac64) logging started Sun Jan 10 09:27:48 2016


Gurobi 6.0.5 (mac64) logging started Sun Jan 10 09:28:27 2016


Gurobi 6.0.5 (mac64) logging started Sun Jan 10 09:28:58 2016


Gurobi 6.0.5 (mac64) logging started Sun Jan 10 09:29:13 2016


Gurobi 6.0.5 (mac64) logging started Sun Jan 10 09:33:38 2016


Gurobi 6.0.5 (mac64) logging started Sun Jan 10 09:34:08 2016


Gurobi 6.0.5 (mac64) logging started Sun Jan 10 09:34:19 2016


Gurobi 6.0.5 (mac64) logging started Sun Jan 10 09:34:36 2016


Gurobi 6.0.5 (mac64) logging started Sun Jan 10 09:34:58 2016


Gurobi 6.0.5 (mac64) logging started Sun Jan 10 09:39:22 2016


Gurobi 6.0.5 (mac64) logging started Sun Jan 10 09:39:39 2016


Gurobi 6.0.5 (mac64) logging started Sun Jan 10 09:39:46 2016


Gurobi 6.0.5 (mac64) logging started Sun Jan 10 09:41:52 2016


Gurobi 6.0.5 (mac64) logging started Sun Jan 10 09:42:02 2016


Gurobi 6.0.5 (mac64) logging started Sun Jan 10 09:42:11 2016


Gurobi 6.0.5 (mac64) logging started Sun Jan 10 10:10:12 2016


Gurobi 6.0.5 (mac64) logging started Sun Jan 10 10:10:17 2016


Gurobi 6.0.5 (mac64) logging started Sun Jan 10 10:10:21 2016


Gurobi 6.0.5 (mac64) logging started Sun Jan 10 10:10:53 2016


Gurobi 6.0.5 (mac64) logging started Sun Jan 10 10:11:00 2016


Gurobi 6.0.5 (mac64) logging started Sun Jan 10 10:11:11 2016


Gurobi 6.0.5 (mac64) logging started Sun Jan 10 10:11:17 2016


Gurobi 6.0.5 (mac64) logging started Sun Jan 10 10:11:45 2016


Gurobi 6.0.5 (mac64) logging started Sun Jan 10 10:12:14 2016


Gurobi 6.0.5 (mac64) logging started Sun Jan 10 10:12:16 2016


Gurobi 6.0.5 (mac64) logging started Sun Jan 10 10:12:58 2016


Gurobi 6.0.5 (mac64) logging started Sun Jan 10 10:13:11 2016


Gurobi 6.0.5 (mac64) logging started Sun Jan 10 10:24:09 2016


Gurobi 6.0.5 (mac64) logging started Sun Jan 10 10:24:31 2016


Gurobi 6.0.5 (mac64) logging started Sun Jan 10 10:30:42 2016


Gurobi 6.0.5 (mac64) logging started Sun Jan 10 11:41:44 2016


Gurobi 6.0.5 (mac64) logging started Sun Jan 10 11:42:21 2016


Gurobi 6.0.5 (mac64) logging started Sun Jan 10 11:42:46 2016


Gurobi 6.0.5 (mac64) logging started Sun Jan 10 11:44:04 2016


Gurobi 6.0.5 (mac64) logging started Sun Jan 10 11:44:31 2016


Gurobi 6.0.5 (mac64) logging started Sun Jan 10 11:44:34 2016


Gurobi 6.0.5 (mac64) logging started Sun Jan 10 11:45:06 2016


Gurobi 6.0.5 (mac64) logging started Sun Jan 10 11:45:35 2016


Gurobi 6.0.5 (mac64) logging started Sun Jan 10 11:47:54 2016


Gurobi 6.0.5 (mac64) logging started Sun Jan 10 12:19:46 2016


Gurobi 6.0.5 (mac64) logging started Sun Jan 10 12:20:08 2016


Gurobi 6.0.5 (mac64) logging started Sun Jan 10 12:20:22 2016


Gurobi 6.0.5 (mac64) logging started Sun Jan 10 12:21:41 2016


Gurobi 6.0.5 (mac64) logging started Sun Jan 10 12:21:46 2016


Gurobi 6.0.5 (mac64) logging started Sun Jan 10 12:21:50 2016


Gurobi 6.0.5 (mac64) logging started Sun Jan 10 12:21:58 2016


Gurobi 6.0.5 (mac64) logging started Sun Jan 10 12:22:06 2016


Gurobi 6.0.5 (mac64) logging started Sun Jan 10 12:27:17 2016


Gurobi 6.0.5 (mac64) logging started Sun Jan 10 12:27:24 2016


Gurobi 6.0.5 (mac64) logging started Sun Jan 10 12:27:26 2016


Gurobi 6.0.5 (mac64) logging started Sun Jan 10 12:27:33 2016


Gurobi 6.0.5 (mac64) logging started Tue Jan 12 17:46:03 2016


Gurobi 6.0.5 (mac64) logging started Tue Jan 12 17:47:14 2016


Gurobi 6.0.5 (mac64) logging started Tue Jan 12 17:47:26 2016


Gurobi 6.0.5 (mac64) logging started Tue Jan 12 17:47:44 2016


Gurobi 6.0.5 (mac64) logging started Tue Jan 12 17:48:14 2016


Gurobi 6.0.5 (mac64) logging started Tue Jan 12 17:48:54 2016


Gurobi 6.0.5 (mac64) logging started Tue Jan 12 17:49:21 2016


Gurobi 6.0.5 (mac64) logging started Tue Jan 12 17:49:45 2016


Gurobi 6.0.5 (mac64) logging started Tue Jan 12 17:50:06 2016


Gurobi 6.0.5 (mac64) logging started Tue Jan 12 17:50:19 2016


Gurobi 6.0.5 (mac64) logging started Tue Jan 12 17:50:34 2016


Gurobi 6.0.5 (mac64) logging started Tue Jan 12 17:50:51 2016


Gurobi 6.0.5 (mac64) logging started Tue Jan 12 17:51:11 2016


Gurobi 6.0.5 (mac64) logging started Tue Jan 12 18:03:31 2016


Gurobi 6.0.5 (mac64) logging started Wed Jan 13 07:33:07 2016


Gurobi 6.0.5 (mac64) logging started Wed Jan 13 07:33:49 2016


Gurobi 6.0.5 (mac64) logging started Wed Jan 13 07:34:36 2016


Gurobi 6.0.5 (mac64) logging started Wed Jan 13 07:34:54 2016


Gurobi 6.0.5 (mac64) logging started Wed Jan 13 07:35:21 2016


Gurobi 6.0.5 (mac64) logging started Wed Jan 13 07:35:44 2016


Gurobi 6.0.5 (mac64) logging started Wed Jan 13 07:35:48 2016


Gurobi 6.0.5 (mac64) logging started Wed Jan 13 07:36:25 2016


Gurobi 6.0.5 (mac64) logging started Wed Jan 13 07:37:28 2016


Gurobi 6.0.5 (mac64) logging started Wed Jan 13 07:37:58 2016


Gurobi 6.0.5 (mac64) logging started Wed Jan 13 07:43:00 2016


Gurobi 6.0.5 (mac64) logging started Wed Jan 13 07:43:20 2016


Gurobi 6.0.5 (mac64) logging started Wed Jan 13 07:44:11 2016


Gurobi 6.0.5 (mac64) logging started Wed Jan 13 07:44:56 2016


Gurobi 6.0.5 (mac64) logging started Wed Jan 13 07:48:16 2016


Gurobi 6.0.5 (mac64) logging started Wed Jan 13 14:34:48 2016


Gurobi 6.0.5 (mac64) logging started Wed Jan 13 14:34:59 2016


Gurobi 6.0.5 (mac64) logging started Wed Jan 13 14:47:05 2016


Gurobi 6.0.5 (mac64) logging started Wed Jan 13 14:47:41 2016


Gurobi 6.0.5 (mac64) logging started Wed Jan 13 14:48:50 2016


Gurobi 6.0.5 (mac64) logging started Wed Jan 13 14:49:15 2016


Gurobi 6.0.5 (mac64) logging started Wed Jan 13 14:50:00 2016


Gurobi 6.0.5 (mac64) logging started Wed Jan 13 14:51:15 2016


Gurobi 6.0.5 (mac64) logging started Wed Jan 13 14:54:08 2016


Gurobi 6.0.5 (mac64) logging started Wed Jan 13 14:54:47 2016


Gurobi 6.0.5 (mac64) logging started Wed Jan 13 14:55:35 2016


Gurobi 6.0.5 (mac64) logging started Wed Jan 13 14:56:00 2016


Gurobi 6.0.5 (mac64) logging started Wed Jan 13 14:56:33 2016


Gurobi 6.0.5 (mac64) logging started Wed Jan 13 14:57:21 2016


Gurobi 6.0.5 (mac64) logging started Wed Jan 13 14:58:34 2016


Gurobi 6.0.5 (mac64) logging started Wed Jan 13 14:58:51 2016


Gurobi 6.0.5 (mac64) logging started Wed Jan 13 14:59:33 2016


Gurobi 6.0.5 (mac64) logging started Wed Jan 13 15:00:06 2016


Gurobi 6.0.5 (mac64) logging started Wed Jan 13 15:02:09 2016


Gurobi 6.0.5 (mac64) logging started Wed Jan 13 15:03:16 2016


Gurobi 6.0.5 (mac64) logging started Wed Jan 13 15:03:45 2016


Gurobi 6.0.5 (mac64) logging started Wed Jan 13 15:09:22 2016


Gurobi 6.0.5 (mac64) logging started Wed Jan 13 15:09:38 2016


Gurobi 6.0.5 (mac64) logging started Wed Jan 13 15:11:28 2016


Gurobi 6.0.5 (mac64) logging started Wed Jan 13 15:11:35 2016


Gurobi 6.0.5 (mac64) logging started Wed Jan 13 15:12:29 2016


Gurobi 6.0.5 (mac64) logging started Wed Jan 13 15:13:12 2016


Gurobi 6.0.5 (mac64) logging started Wed Jan 13 15:13:56 2016


Gurobi 6.0.5 (mac64) logging started Wed Jan 13 15:14:23 2016


Gurobi 6.0.5 (mac64) logging started Wed Jan 13 15:15:35 2016


Gurobi 6.0.5 (mac64) logging started Wed Jan 13 15:15:45 2016


Gurobi 6.0.5 (mac64) logging started Wed Jan 13 15:15:58 2016


Gurobi 6.0.5 (mac64) logging started Wed Jan 13 15:16:54 2016


Gurobi 6.0.5 (mac64) logging started Wed Jan 13 15:17:03 2016


Gurobi 6.0.5 (mac64) logging started Wed Jan 13 15:17:37 2016


Gurobi 6.0.5 (mac64) logging started Wed Jan 13 15:18:22 2016


Gurobi 6.0.5 (mac64) logging started Wed Jan 13 15:19:05 2016


Gurobi 6.0.5 (mac64) logging started Wed Jan 13 15:19:27 2016


Gurobi 6.0.5 (mac64) logging started Wed Jan 13 15:19:48 2016


Gurobi 6.0.5 (mac64) logging started Wed Jan 13 15:23:59 2016


Gurobi 6.0.5 (mac64) logging started Wed Jan 13 15:24:40 2016


Gurobi 6.0.5 (mac64) logging started Wed Jan 13 15:28:17 2016


Gurobi 6.0.5 (mac64) logging started Wed Jan 13 15:28:30 2016


Gurobi 6.0.5 (mac64) logging started Wed Jan 13 15:28:39 2016


Gurobi 6.0.5 (mac64) logging started Wed Jan 13 15:34:45 2016


Gurobi 6.0.5 (mac64) logging started Wed Jan 13 15:37:52 2016


Gurobi 6.0.5 (mac64) logging started Wed Jan 13 15:38:21 2016


Gurobi 6.0.5 (mac64) logging started Wed Jan 13 15:38:31 2016


Gurobi 6.0.5 (mac64) logging started Wed Jan 13 22:29:53 2016


Gurobi 6.0.5 (mac64) logging started Wed Jan 13 22:30:12 2016


Gurobi 6.0.5 (mac64) logging started Wed Jan 13 22:30:32 2016


Gurobi 6.0.5 (mac64) logging started Wed Jan 13 22:30:49 2016


Gurobi 6.0.5 (mac64) logging started Wed Jan 13 22:31:32 2016


Gurobi 6.0.5 (mac64) logging started Wed Jan 13 22:50:09 2016


Gurobi 6.0.5 (mac64) logging started Wed Jan 13 22:50:26 2016


Gurobi 6.0.5 (mac64) logging started Wed Jan 13 22:50:56 2016


Gurobi 6.0.5 (mac64) logging started Wed Jan 13 22:51:12 2016


Gurobi 6.0.5 (mac64) logging started Wed Jan 13 23:50:17 2016


Gurobi 6.0.5 (mac64) logging started Wed Jan 13 23:50:34 2016


Gurobi 6.0.5 (mac64) logging started Wed Jan 13 23:51:26 2016


Gurobi 6.0.5 (mac64) logging started Wed Jan 13 23:52:04 2016


Gurobi 6.0.5 (mac64) logging started Wed Jan 13 23:52:30 2016


Gurobi 6.0.5 (mac64) logging started Wed Jan 13 23:52:49 2016


Gurobi 6.0.5 (mac64) logging started Wed Jan 13 23:52:58 2016


Gurobi 6.0.5 (mac64) logging started Wed Jan 13 23:53:56 2016


Gurobi 6.0.5 (mac64) logging started Wed Jan 13 23:54:17 2016


Gurobi 6.0.5 (mac64) logging started Wed Jan 13 23:56:08 2016


Gurobi 6.0.5 (mac64) logging started Wed Jan 13 23:56:11 2016


Gurobi 6.0.5 (mac64) logging started Thu Jan 14 11:36:16 2016


Gurobi 6.0.5 (mac64) logging started Thu Jan 14 11:39:53 2016


Gurobi 6.0.5 (mac64) logging started Thu Jan 14 11:39:54 2016


Gurobi 6.0.5 (mac64) logging started Thu Jan 14 11:43:47 2016


Gurobi 6.0.5 (mac64) logging started Thu Jan 14 11:45:04 2016


Gurobi 6.0.5 (mac64) logging started Thu Jan 14 11:48:12 2016


Gurobi 6.0.5 (mac64) logging started Thu Jan 14 11:48:21 2016


Gurobi 6.0.5 (mac64) logging started Thu Jan 14 11:52:51 2016


Gurobi 6.0.5 (mac64) logging started Thu Jan 14 11:53:53 2016


Gurobi 6.0.5 (mac64) logging started Thu Jan 14 11:54:18 2016


Gurobi 6.0.5 (mac64) logging started Thu Jan 14 11:55:15 2016


Gurobi 6.0.5 (mac64) logging started Thu Jan 14 11:55:30 2016


Gurobi 6.0.5 (mac64) logging started Thu Jan 14 11:55:58 2016


Gurobi 6.0.5 (mac64) logging started Thu Jan 14 11:56:16 2016


Gurobi 6.0.5 (mac64) logging started Thu Jan 14 11:56:30 2016


Gurobi 6.0.5 (mac64) logging started Thu Jan 14 11:57:07 2016


Gurobi 6.0.5 (mac64) logging started Thu Jan 14 11:57:26 2016


Gurobi 6.0.5 (mac64) logging started Thu Jan 14 12:00:04 2016


Gurobi 6.0.5 (mac64) logging started Thu Jan 14 12:00:11 2016


Gurobi 6.0.5 (mac64) logging started Thu Jan 14 12:00:23 2016


Gurobi 6.0.5 (mac64) logging started Thu Jan 14 12:00:41 2016


Gurobi 6.0.5 (mac64) logging started Thu Jan 14 12:00:58 2016


Gurobi 6.0.5 (mac64) logging started Thu Jan 14 12:01:09 2016


Gurobi 6.0.5 (mac64) logging started Thu Jan 14 13:13:58 2016


Gurobi 6.0.5 (mac64) logging started Thu Jan 14 13:14:26 2016


Gurobi 6.0.5 (mac64) logging started Thu Jan 14 13:14:49 2016


Gurobi 6.0.5 (mac64) logging started Thu Jan 14 13:15:09 2016


Gurobi 6.0.5 (mac64) logging started Thu Jan 14 13:16:16 2016


Gurobi 6.0.5 (mac64) logging started Thu Jan 14 13:16:47 2016


Gurobi 6.0.5 (mac64) logging started Thu Jan 14 13:17:05 2016


Gurobi 6.0.5 (mac64) logging started Thu Jan 14 13:17:23 2016


Gurobi 6.0.5 (mac64) logging started Thu Jan 14 13:20:02 2016


Gurobi 6.0.5 (mac64) logging started Thu Jan 14 13:20:22 2016


Gurobi 6.0.5 (mac64) logging started Thu Jan 14 13:20:53 2016


Gurobi 6.0.5 (mac64) logging started Thu Jan 14 13:21:20 2016


Gurobi 6.0.5 (mac64) logging started Thu Jan 14 13:21:24 2016


Gurobi 6.0.5 (mac64) logging started Thu Jan 14 13:21:32 2016


Gurobi 6.0.5 (mac64) logging started Thu Jan 14 13:21:36 2016


Gurobi 6.0.5 (mac64) logging started Thu Jan 14 13:21:39 2016


Gurobi 6.0.5 (mac64) logging started Thu Jan 14 13:21:54 2016


Gurobi 6.0.5 (mac64) logging started Thu Jan 14 13:21:57 2016


Gurobi 6.0.5 (mac64) logging started Thu Jan 14 13:22:09 2016


Gurobi 6.0.5 (mac64) logging started Thu Jan 14 15:50:40 2016


Gurobi 6.0.5 (mac64) logging started Thu Jan 14 15:50:45 2016


Gurobi 6.0.5 (mac64) logging started Thu Jan 14 15:50:52 2016


Gurobi 6.0.5 (mac64) logging started Thu Jan 14 17:02:22 2016


Gurobi 6.0.5 (mac64) logging started Thu Jan 14 17:04:36 2016


Gurobi 6.0.5 (mac64) logging started Thu Jan 14 17:05:41 2016

